S = 4;
start = [|0,0,0,0,0,0,0,0,0,0,0,0,0,0,0,0|
0,0,0,0,0,0,0,0,0,0,0,0,0,0,0,0|
0,0,0,0,0,0,0,0,0,0,0,0,0,0,0,0|
0,0,0,0,0,0,0,0,0,0,0,0,0,0,0,0|
0,0,0,0,0,0,0,0,0,0,0,0,0,0,0,0|
0,0,0,0,0,0,0,0,0,0,0,0,0,0,0,0|
0,0,0,0,0,0,0,0,0,0,0,0,0,0,0,0|
0,0,0,0,0,0,0,0,0,0,0,0,0,0,0,0|
0,0,0,0,0,0,0,0,0,0,0,0,0,0,0,0|
0,0,0,0,0,0,0,0,0,0,0,0,0,0,0,0|
0,0,0,0,0,0,0,0,0,0,0,0,0,0,0,0|
0,0,0,0,0,0,0,0,0,0,0,0,0,0,0,0|
0,0,0,0,0,0,0,0,0,0,0,0,0,0,0,0|
0,0,0,0,0,0,0,0,0,0,0,0,0,0,0,0|
0,0,0,0,0,0,0,0,0,0,0,0,0,0,0,0|
0,0,0,0,0,0,0,0,0,0,0,0,0,0,0,0|];